
Gurobi 11.0.2 (linux64) logging started Tue 03 Dec 2024 09:05:55 AM CET

Set parameter LogFile to value "./res/knapPI_11_50_1000/knapPI_11_50_1000_61/grb_dom.log"
Set parameter Presolve to value 0
Set parameter Aggregate to value 0
Set parameter Heuristics to value 0
Set parameter LPWarmStart to value 0
Set parameter NLPHeur to value 0
Set parameter PreDepRow to value 0
Set parameter PreDual to value 0
Set parameter RINS to value 0
Set parameter Symmetry to value 0
Set parameter NodeLimit to value 1
Set parameter Threads to value 1

Gurobi 11.0.2 (linux64) logging started Tue 03 Dec 2024 09:05:56 AM CET

Set parameter LogFile to value "./res/knapPI_11_50_1000/knapPI_11_50_1000_61/grb_dom.log"
Set parameter NLPHeur to value 0
Set parameter LPWarmStart to value 0
Set parameter PreDepRow to value 0
Set parameter Symmetry to value 0
Set parameter Presolve to value 0
Gurobi Optimizer version 11.0.2 build v11.0.2rc0 (linux64 - "Pop!_OS 20.04 LTS")

CPU model: Intel(R) Core(TM) i7-8650U CPU @ 1.90GHz, instruction set [SSE2|AVX|AVX2]
Thread count: 4 physical cores, 4 logical processors, using up to 1 threads

Optimize a model with 11644 rows, 50 columns and 130316 nonzeros
Model fingerprint: 0x373e0190
Variable types: 0 continuous, 50 integer (50 binary)
Coefficient statistics:
  Matrix range     [1e+00, 2e+03]
  Objective range  [2e+01, 2e+03]
  Bounds range     [0e+00, 0e+00]
  RHS range        [2e+04, 2e+04]
Variable types: 0 continuous, 50 integer (50 binary)

Root relaxation: objective 2.215446e+04, 35 iterations, 0.09 seconds (0.03 work units)

    Nodes    |    Current Node    |     Objective Bounds      |     Work
 Expl Unexpl |  Obj  Depth IntInf | Incumbent    BestBd   Gap | It/Node Time

     0     0 22154.4556    0    1          - 22154.4556      -     -    0s
     0     0 22154.4556    0    1          - 22154.4556      -     -    0s
     0     0 22154.4556    0    2          - 22154.4556      -     -    0s
     0     0 22154.4556    0    2          - 22154.4556      -     -    0s
     0     0 22154.4556    0    1          - 22154.4556      -     -    0s
     0     0 22154.4556    0    1          - 22154.4556      -     -    0s
     0     0 22154.4556    0    1          - 22154.4556      -     -    0s
     0     0 22154.4556    0    4          - 22154.4556      -     -    0s
     0     0 22059.6625    0    1          - 22059.6625      -     -    0s
     0     0 22059.6625    0    4          - 22059.6625      -     -    0s
     0     0 22059.6625    0    1          - 22059.6625      -     -    1s
     0     0 22059.6625    0    4          - 22059.6625      -     -    1s
     0     0 22059.6625    0    5          - 22059.6625      -     -    1s
     0     0 22059.6625    0    4          - 22059.6625      -     -    1s
     0     0 22059.6625    0    6          - 22059.6625      -     -    1s
     0     0 22059.6625    0    7          - 22059.6625      -     -    1s
     0     0 22059.6625    0    7          - 22059.6625      -     -    1s
     0     0 22057.1053    0    4          - 22057.1053      -     -    1s
     0     0 22057.1053    0    5          - 22057.1053      -     -    1s
     0     0 22057.1053    0    5          - 22057.1053      -     -    1s
     0     0 22057.1053    0    3          - 22057.1053      -     -    1s
     0     0 22057.1053    0    3          - 22057.1053      -     -    1s
     0     0 22057.1053    0    4          - 22057.1053      -     -    1s
     0     0 22057.1053    0    3          - 22057.1053      -     -    2s
     0     0 22057.1053    0    1          - 22057.1053      -     -    2s
     0     0 22057.1053    0    3          - 22057.1053      -     -    2s
     0     0 22057.1053    0    3          - 22057.1053      -     -    2s
     0     2 22057.1053    0    3          - 22057.1053      -     -    2s

Cutting planes:
  Cover: 2
  MIR: 6

Explored 1 nodes (82 simplex iterations) in 2.22 seconds (0.89 work units)
Thread count was 1 (of 4 available processors)

Solution count 0

Node limit reached
Best objective -, best bound 2.205700000000e+04, gap -

User-callback calls 950, time in user-callback 0.01 sec
opt = false
obj = 22057.1053
nb_dom_cuts = 11643
solved_time = 2.2215
opt_val = 22045.0
